set NODES := 0 1 2 3 4 5 6;

param C :
    0   1   2   3   4   5   6 :=
0  1990  1990  1990  594  990  466  1990
1  761  1990  717  603  667  393  839
2  766  1990  1990  413  453  575  303
3  171  286  753  1990  550  1990  1990
4  881  690  520  721  1990  129  1990
5  289  631  1990  435  129  1990  367
6  367  872  228  517  603  377  1990
;

set PROHIBITED := ;

param start_node := 0;
param end_node := 6;
